&CONTROL
  calculation = 'scf'
  max_seconds =   3.4200000000d+03
  outdir = './out/'
  prefix = 'aiida'
  pseudo_dir = './pseudo/'
  restart_mode = 'from_scratch'
  tprnfor = .true.
  verbosity = 'high'
  wf_collect = .true.
/
&SYSTEM
  ecutrho = 600
  ecutwfc = 60
  ibrav = 0
  nat = 135
  ntyp = 3
/
&ELECTRONS
  conv_thr =   1.0000000000d-10
/

ATOMIC_SPECIES
Ba     137.327 Ba.pbesol-spn-rrkjus_psl.0.2.3-tot-pslib030.UPF
O      15.9994 O.pbesol-n-rrkjus_psl.0.1-tested-pslib030.UPF
Ti     47.867 Ti.pbesol-spn-rrkjus_psl.0.2.3-tot-pslib030.UPF

K_POINTS automatic
2 2 2 0 0 0


CELL_PARAMETERS angstrom
11.9399999999999995  0.0000000000000000  0.0000000000000000
0.0000000000000000  11.9399999999999995  0.0000000000000000
0.0000000000000000  0.0000000000000000  11.9399999999999995

ATOMIC_POSITIONS angstrom
Ba    1.9900000000000000  1.9900000000000000  1.9900000000000000
Ti    0.0500000000000000  0.0000000000000000  0.0000000000000000
O    1.9900000000000000  0.0000000000000000  0.0000000000000000
O    0.0000000000000000  1.9900000000000000  0.0000000000000000
O    0.0000000000000000  0.0000000000000000  1.9900000000000000
Ba    1.9900000000000000  1.9900000000000000  5.9699999999999998
Ti    0.0000000000000000  0.0000000000000000  3.9799999999999995
O    1.9900000000000000  0.0000000000000000  3.9799999999999995
O    0.0000000000000000  1.9900000000000000  3.9799999999999995
O    0.0000000000000000  0.0000000000000000  5.9699999999999998
Ba    1.9900000000000000  1.9900000000000000  9.9499999999999993
Ti    0.0000000000000000  0.0000000000000000  7.9599999999999991
O    1.9900000000000000  0.0000000000000000  7.9599999999999991
O    0.0000000000000000  1.9900000000000000  7.9599999999999991
O    0.0000000000000000  0.0000000000000000  9.9499999999999993
Ba    1.9900000000000000  5.9699999999999998  1.9900000000000000
Ti    0.0000000000000000  3.9799999999999995  0.0000000000000000
O    1.9900000000000000  3.9799999999999995  0.0000000000000000
O    0.0000000000000000  5.9699999999999998  0.0000000000000000
O    0.0000000000000000  3.9799999999999995  1.9900000000000000
Ba    1.9900000000000000  5.9699999999999998  5.9699999999999998
Ti    0.0000000000000000  3.9799999999999995  3.9799999999999995
O    1.9900000000000000  3.9799999999999995  3.9799999999999995
O    0.0000000000000000  5.9699999999999998  3.9799999999999995
O    0.0000000000000000  3.9799999999999995  5.9699999999999998
Ba    1.9900000000000000  5.9699999999999998  9.9499999999999993
Ti    0.0000000000000000  3.9799999999999995  7.9599999999999991
O    1.9900000000000000  3.9799999999999995  7.9599999999999991
O    0.0000000000000000  5.9699999999999998  7.9599999999999991
O    0.0000000000000000  3.9799999999999995  9.9499999999999993
Ba    1.9900000000000000  9.9499999999999993  1.9900000000000000
Ti    0.0000000000000000  7.9599999999999991  0.0000000000000000
O    1.9900000000000000  7.9599999999999991  0.0000000000000000
O    0.0000000000000000  9.9499999999999993  0.0000000000000000
O    0.0000000000000000  7.9599999999999991  1.9900000000000000
Ba    1.9900000000000000  9.9499999999999993  5.9699999999999998
Ti    0.0000000000000000  7.9599999999999991  3.9799999999999995
O    1.9900000000000000  7.9599999999999991  3.9799999999999995
O    0.0000000000000000  9.9499999999999993  3.9799999999999995
O    0.0000000000000000  7.9599999999999991  5.9699999999999998
Ba    1.9900000000000000  9.9499999999999993  9.9499999999999993
Ti    0.0000000000000000  7.9599999999999991  7.9599999999999991
O    1.9900000000000000  7.9599999999999991  7.9599999999999991
O    0.0000000000000000  9.9499999999999993  7.9599999999999991
O    0.0000000000000000  7.9599999999999991  9.9499999999999993
Ba    5.9699999999999998  1.9900000000000000  1.9900000000000000
Ti    3.9799999999999995  0.0000000000000000  0.0000000000000000
O    5.9699999999999998  0.0000000000000000  0.0000000000000000
O    3.9799999999999995  1.9900000000000000  0.0000000000000000
O    3.9799999999999995  0.0000000000000000  1.9900000000000000
Ba    5.9699999999999998  1.9900000000000000  5.9699999999999998
Ti    3.9799999999999995  0.0000000000000000  3.9799999999999995
O    5.9699999999999998  0.0000000000000000  3.9799999999999995
O    3.9799999999999995  1.9900000000000000  3.9799999999999995
O    3.9799999999999995  0.0000000000000000  5.9699999999999998
Ba    5.9699999999999998  1.9900000000000000  9.9499999999999993
Ti    3.9799999999999995  0.0000000000000000  7.9599999999999991
O    5.9699999999999998  0.0000000000000000  7.9599999999999991
O    3.9799999999999995  1.9900000000000000  7.9599999999999991
O    3.9799999999999995  0.0000000000000000  9.9499999999999993
Ba    5.9699999999999998  5.9699999999999998  1.9900000000000000
Ti    3.9799999999999995  3.9799999999999995  0.0000000000000000
O    5.9699999999999998  3.9799999999999995  0.0000000000000000
O    3.9799999999999995  5.9699999999999998  0.0000000000000000
O    3.9799999999999995  3.9799999999999995  1.9900000000000000
Ba    5.9699999999999998  5.9699999999999998  5.9699999999999998
Ti    3.9799999999999995  3.9799999999999995  3.9799999999999995
O    5.9699999999999998  3.9799999999999995  3.9799999999999995
O    3.9799999999999995  5.9699999999999998  3.9799999999999995
O    3.9799999999999995  3.9799999999999995  5.9699999999999998
Ba    5.9699999999999998  5.9699999999999998  9.9499999999999993
Ti    3.9799999999999995  3.9799999999999995  7.9599999999999991
O    5.9699999999999998  3.9799999999999995  7.9599999999999991
O    3.9799999999999995  5.9699999999999998  7.9599999999999991
O    3.9799999999999995  3.9799999999999995  9.9499999999999993
Ba    5.9699999999999998  9.9499999999999993  1.9900000000000000
Ti    3.9799999999999995  7.9599999999999991  0.0000000000000000
O    5.9699999999999998  7.9599999999999991  0.0000000000000000
O    3.9799999999999995  9.9499999999999993  0.0000000000000000
O    3.9799999999999995  7.9599999999999991  1.9900000000000000
Ba    5.9699999999999998  9.9499999999999993  5.9699999999999998
Ti    3.9799999999999995  7.9599999999999991  3.9799999999999995
O    5.9699999999999998  7.9599999999999991  3.9799999999999995
O    3.9799999999999995  9.9499999999999993  3.9799999999999995
O    3.9799999999999995  7.9599999999999991  5.9699999999999998
Ba    5.9699999999999998  9.9499999999999993  9.9499999999999993
Ti    3.9799999999999995  7.9599999999999991  7.9599999999999991
O    5.9699999999999998  7.9599999999999991  7.9599999999999991
O    3.9799999999999995  9.9499999999999993  7.9599999999999991
O    3.9799999999999995  7.9599999999999991  9.9499999999999993
Ba    9.9499999999999993  1.9900000000000000  1.9900000000000000
Ti    7.9599999999999991  0.0000000000000000  0.0000000000000000
O    9.9499999999999993  0.0000000000000000  0.0000000000000000
O    7.9599999999999991  1.9900000000000000  0.0000000000000000
O    7.9599999999999991  0.0000000000000000  1.9900000000000000
Ba    9.9499999999999993  1.9900000000000000  5.9699999999999998
Ti    7.9599999999999991  0.0000000000000000  3.9799999999999995
O    9.9499999999999993  0.0000000000000000  3.9799999999999995
O    7.9599999999999991  1.9900000000000000  3.9799999999999995
O    7.9599999999999991  0.0000000000000000  5.9699999999999998
Ba    9.9499999999999993  1.9900000000000000  9.9499999999999993
Ti    7.9599999999999991  0.0000000000000000  7.9599999999999991
O    9.9499999999999993  0.0000000000000000  7.9599999999999991
O    7.9599999999999991  1.9900000000000000  7.9599999999999991
O    7.9599999999999991  0.0000000000000000  9.9499999999999993
Ba    9.9499999999999993  5.9699999999999998  1.9900000000000000
Ti    7.9599999999999991  3.9799999999999995  0.0000000000000000
O    9.9499999999999993  3.9799999999999995  0.0000000000000000
O    7.9599999999999991  5.9699999999999998  0.0000000000000000
O    7.9599999999999991  3.9799999999999995  1.9900000000000000
Ba    9.9499999999999993  5.9699999999999998  5.9699999999999998
Ti    7.9599999999999991  3.9799999999999995  3.9799999999999995
O    9.9499999999999993  3.9799999999999995  3.9799999999999995
O    7.9599999999999991  5.9699999999999998  3.9799999999999995
O    7.9599999999999991  3.9799999999999995  5.9699999999999998
Ba    9.9499999999999993  5.9699999999999998  9.9499999999999993
Ti    7.9599999999999991  3.9799999999999995  7.9599999999999991
O    9.9499999999999993  3.9799999999999995  7.9599999999999991
O    7.9599999999999991  5.9699999999999998  7.9599999999999991
O    7.9599999999999991  3.9799999999999995  9.9499999999999993
Ba    9.9499999999999993  9.9499999999999993  1.9900000000000000
Ti    7.9599999999999991  7.9599999999999991  0.0000000000000000
O    9.9499999999999993  7.9599999999999991  0.0000000000000000
O    7.9599999999999991  9.9499999999999993  0.0000000000000000
O    7.9599999999999991  7.9599999999999991  1.9900000000000000
Ba    9.9499999999999993  9.9499999999999993  5.9699999999999998
Ti    7.9599999999999991  7.9599999999999991  3.9799999999999995
O    9.9499999999999993  7.9599999999999991  3.9799999999999995
O    7.9599999999999991  9.9499999999999993  3.9799999999999995
O    7.9599999999999991  7.9599999999999991  5.9699999999999998
Ba    9.9499999999999993  9.9499999999999993  9.9499999999999993
Ti    7.9599999999999991  7.9599999999999991  7.9599999999999991
O    9.9499999999999993  7.9599999999999991  7.9599999999999991
O    7.9599999999999991  9.9499999999999993  7.9599999999999991
O    7.9599999999999991  7.9599999999999991  9.9499999999999993
